min: 6 x1 + 967 x2 + 293 x3 + 268 x4 + 841 x5 + 336 x6 + 688 x7 + 327 x8 + 873 x9 + 192 x10 + 262 x11 + 24 x12 + 45 x13 + 549 x14 + 842 x15 + 835 x16 + 491 x17 + 510 x18 + 244 x19 + 329 x20 + 94 x21 + 128 x22 + 889 x23 + 415 x24 + 843 x25 + 114 x26 + 327 x27 + 835 x28 + 96 x29 + 305 x30 + 855 x31 + 352 x32 + 735 x33 + 565 x34 + 127 x35 + 766 x36 + 322 x37 + 294 x38 + 589 x39 + 921 x40 + 624 x41 + 445 x42 + 804 x43 + 936 x44 + 865 x45 + 315 x46 + 718 x47 + 888 x48 + 508 x49 + 708 x50 + 995 x51 + 671 x52 + 995 x53 + 714 x54 + 926 x55 + 654 x56 + 60 x57 + 892 x58 + 77 x59 + 669 x60 + 20 x61 + 343 x62 + 817 x63 + 878 x64 + 289 x65 + 752 x66 + 177 x67 + 409 x68 + 207 x69 + 341 x70 + 454 x71 + 715 x72 + 924 x73 + 252 x74 + 374 x75 + 307 x76 + 643 x77 + 625 x78 + 209 x79 + 989 x80 + 743 x81 + 693 x82 + 790 x83 + 980 x84 + 749 x85 + 511 x86 + 310 x87 + 237 x88 + 238 x89 + 259 x90 + 285 x91 + 89 x92 + 866 x93 + 881 x94 + 431 x95 + 906 x96 + 359 x97 + 585 x98 + 302 x99 + 144 x100;

r1: x6 + x29 + x57 + x39 + x100 + x30 >= 1;
r2: x30 + x46 + x26 >= 1;
r3: x11 + x34 + x27 + x86 + x42 >= 1;
r4: x91 + x7 >= 1;
r5: x90 + x45 + x78 + x64 + x58 + x97 >= 1;
r6: x88 + x89 + x13 + x36 + x70 + x31 >= 1;
r7: x93 >= 1;
r8: x90 + x48 + x57 + x41 + x76 + x1 >= 1;
r9: x68 >= 1;
r10: x46 + x34 + x84 >= 1;
r11: x75 + x5 + x42 + x56 + x28 + x57 + x90 + x84 >= 1;
r12: x20 + x36 + x65 >= 1;
r13: x63 + x40 + x16 + x14 + x68 + x39 >= 1;
r14: x39 + x38 + x28 + x80 + x47 >= 1;
r15: x69 + x72 + x96 + x45 + x51 + x64 >= 1;
r16: x99 + x33 + x60 + x72 + x78 + x58 + x49 + x15 >= 1;
r17: x5 + x76 >= 1;
r18: x81 + x84 + x52 + x17 + x12 + x6 + x22 >= 1;
r19: x32 + x29 + x48 + x55 + x69 + x66 >= 1;
r20: x57 >= 1;
r21: x67 + x53 + x91 + x24 + x11 + x79 + x30 + x27 >= 1;
r22: x24 + x4 + x93 + x59 + x37 + x12 + x46 + x88 >= 1;
r23: x8 + x2 + x96 + x10 >= 1;
r24: x94 + x83 + x17 >= 1;
r25: x59 + x36 + x40 + x94 >= 1;
r26: x97 + x39 + x86 + x59 + x13 + x21 >= 1;
r27: x47 + x44 + x97 + x82 + x1 + x80 >= 1;
r28: x89 >= 1;
r29: x52 + x96 + x77 >= 1;
r30: x5 + x4 + x94 + x3 + x16 >= 1;
r31: x71 + x11 + x79 + x92 >= 1;
r32: x21 + x5 + x80 + x93 + x73 + x95 + x32 + x47 >= 1;
r33: x32 + x27 + x24 + x20 + x31 + x98 + x96 + x97 >= 1;
r34: x6 + x20 + x56 + x4 + x54 + x99 + x7 + x80 >= 1;
r35: x75 + x73 + x42 + x71 + x98 + x46 >= 1;
r36: x25 + x95 + x56 + x76 + x42 + x83 + x70 >= 1;
r37: x50 + x56 + x35 + x43 >= 1;
r38: x36 + x80 + x89 + x85 + x29 >= 1;
r39: x68 + x89 + x18 + x60 + x32 + x46 + x22 >= 1;
r40: x40 + x25 + x49 + x80 + x65 + x6 + x15 >= 1;
r41: x68 + x94 + x12 + x99 + x2 + x100 + x79 >= 1;
r42: x90 >= 1;
r43: x57 + x46 + x94 + x2 + x69 + x80 + x47 >= 1;
r44: x57 + x10 + x23 + x80 + x1 + x93 + x29 >= 1;
r45: x63 + x23 >= 1;
r46: x93 + x65 >= 1;
r47: x85 + x25 + x89 + x7 >= 1;
r48: x3 + x58 + x74 + x47 + x42 + x13 + x12 >= 1;
r49: x89 + x87 + x23 + x100 + x84 + x83 >= 1;
r50: x46 + x10 + x19 + x87 >= 1;
r51: x38 + x79 + x89 + x15 + x60 + x74 + x5 >= 1;
r52: x64 + x59 + x99 + x26 + x9 + x19 >= 1;
r53: x99 + x30 + x19 >= 1;
r54: x37 + x31 >= 1;
r55: x86 + x21 + x33 + x93 >= 1;
r56: x81 + x71 + x11 >= 1;
r57: x31 + x34 + x19 + x86 >= 1;
r58: x94 >= 1;
r59: x56 >= 1;
r60: x52 + x60 >= 1;
r61: x36 + x72 + x4 + x41 + x50 >= 1;
r62: x90 + x77 + x11 + x98 + x43 >= 1;
r63: x15 + x80 + x37 + x46 + x19 + x38 + x42 >= 1;
r64: x52 + x85 + x55 + x94 + x29 + x17 >= 1;
r65: x43 + x27 >= 1;
r66: x9 + x81 + x100 + x82 + x96 + x14 + x61 + x79 >= 1;
r67: x45 + x87 + x22 + x56 >= 1;
r68: x90 + x94 + x66 >= 1;
r69: x73 + x86 + x92 + x95 + x84 + x8 >= 1;
r70: x33 + x86 + x77 + x8 + x53 + x99 + x5 + x60 >= 1;
r71: x60 >= 1;
r72: x62 + x92 + x49 + x29 >= 1;
r73: x57 + x15 + x9 + x16 + x94 >= 1;
r74: x85 + x37 + x79 + x8 + x31 + x9 >= 1;
r75: x24 + x16 + x96 + x51 + x83 + x39 + x3 >= 1;
r76: x29 + x53 + x61 + x14 >= 1;
r77: x64 + x22 >= 1;
r78: x91 >= 1;
r79: x32 + x33 + x10 + x48 + x13 + x99 + x11 + x79 >= 1;
r80: x9 >= 1;
r81: x1 + x36 >= 1;
r82: x21 + x7 >= 1;
r83: x58 + x67 + x72 + x65 + x64 >= 1;
r84: x86 + x46 + x17 + x72 + x76 + x100 >= 1;
r85: x62 + x61 + x93 + x15 + x29 >= 1;
r86: x57 + x42 + x98 + x100 + x13 + x52 + x18 + x47 >= 1;
r87: x41 + x59 + x5 + x13 + x81 + x23 >= 1;
r88: x56 + x90 + x37 + x69 + x23 + x18 + x50 >= 1;
r89: x27 + x51 + x39 + x86 + x74 >= 1;
r90: x57 >= 1;
r91: x25 + x62 + x18 + x16 + x23 >= 1;
r92: x88 >= 1;
r93: x58 + x28 + x96 + x81 >= 1;
r94: x1 + x30 + x51 >= 1;
r95: x65 + x50 + x54 >= 1;
r96: x10 + x29 + x42 + x48 >= 1;
r97: x16 + x83 + x79 + x38 + x66 + x31 + x34 + x35 >= 1;
r98: x82 + x84 + x11 + x86 + x15 + x78 >= 1;
r99: x18 + x3 + x72 + x10 + x32 + x58 + x31 >= 1;
r100: x97 + x5 + x23 + x39 + x60 + x31 + x42 >= 1;
r101: x6 + x61 + x17 + x68 >= 1;
r102: x78 + x53 + x13 + x92 + x76 >= 1;
r103: x63 + x15 + x44 + x69 >= 1;
r104: x35 + x50 + x41 >= 1;
r105: x49 + x14 + x15 + x59 + x51 + x92 + x83 + x27 >= 1;
r106: x95 + x24 + x46 >= 1;
r107: x43 + x99 + x10 + x44 + x55 >= 1;
r108: x26 + x55 >= 1;
r109: x82 + x18 + x57 + x20 + x12 + x71 + x37 + x16 >= 1;
r110: x28 + x60 + x47 + x72 >= 1;
r111: x9 + x43 + x94 + x83 + x56 + x81 >= 1;
r112: x57 + x76 + x92 + x12 + x100 + x94 + x7 >= 1;
r113: x11 >= 1;
r114: x38 + x17 + x8 + x70 >= 1;
r115: x94 + x69 + x80 >= 1;
r116: x16 + x51 + x57 + x53 + x5 + x23 + x30 + x15 >= 1;
r117: x72 >= 1;
r118: x84 + x99 + x63 >= 1;
r119: x51 + x69 + x5 + x91 + x50 + x46 + x75 + x16 >= 1;
r120: x10 + x96 >= 1;
r121: x64 + x22 >= 1;
r122: x10 + x20 + x69 + x14 + x90 + x84 >= 1;
r123: x10 + x75 + x80 + x47 + x50 + x84 + x58 >= 1;
r124: x65 + x71 + x84 >= 1;
r125: x8 + x7 + x44 + x12 + x17 + x66 + x31 >= 1;
r126: x9 + x86 >= 1;
r127: x30 + x54 + x72 + x27 + x97 + x89 >= 1;
r128: x58 + x28 + x70 + x8 + x12 >= 1;
r129: x72 + x96 + x14 >= 1;
r130: x45 + x93 >= 1;
r131: x24 >= 1;
r132: x92 + x49 + x18 + x28 >= 1;
r133: x35 + x80 + x1 + x57 + x48 >= 1;
r134: x55 + x68 + x15 + x5 + x85 + x32 + x84 >= 1;
r135: x12 >= 1;
r136: x17 >= 1;
r137: x100 + x60 + x92 + x81 + x13 + x85 >= 1;
r138: x22 + x82 + x95 + x20 + x91 + x86 + x85 >= 1;
r139: x8 >= 1;
r140: x31 + x60 + x81 + x86 + x5 + x25 >= 1;
r141: x15 + x29 + x27 + x30 >= 1;
r142: x33 >= 1;
r143: x32 + x96 + x52 + x6 + x41 + x91 + x25 >= 1;
r144: x52 + x53 + x12 >= 1;
r145: x48 + x69 + x36 + x42 >= 1;
r146: x52 + x100 + x71 >= 1;
r147: x45 >= 1;
r148: x45 + x41 >= 1;
r149: x90 + x48 + x29 + x75 + x16 + x58 >= 1;
r150: x66 + x48 + x54 + x10 + x27 + x74 >= 1;
r151: x22 + x86 + x94 + x54 >= 1;
r152: x13 + x61 + x44 + x84 >= 1;
r153: x88 + x38 + x32 + x98 + x91 + x100 >= 1;
r154: x39 + x10 + x49 + x100 + x65 + x32 >= 1;
r155: x81 + x75 + x74 >= 1;
r156: x52 + x23 >= 1;
r157: x40 + x21 >= 1;
r158: x22 + x37 >= 1;
r159: x10 + x94 + x26 + x89 + x23 + x85 + x35 >= 1;
r160: x52 + x44 + x16 + x9 + x2 >= 1;
r161: x51 + x7 + x68 + x33 + x80 >= 1;
r162: x38 + x53 + x50 + x10 + x90 + x3 + x82 >= 1;
r163: x40 + x16 + x82 + x71 + x54 >= 1;
r164: x86 >= 1;
r165: x46 + x23 + x36 + x57 + x58 + x55 >= 1;
r166: x6 + x54 >= 1;
r167: x19 + x8 + x56 >= 1;
r168: x50 + x73 + x68 >= 1;
r169: x26 + x59 + x83 >= 1;
r170: x94 + x53 + x39 + x93 + x35 >= 1;
r171: x19 + x51 + x88 >= 1;
r172: x60 + x37 >= 1;
r173: x63 + x41 + x85 >= 1;
r174: x82 + x37 + x42 + x33 >= 1;
r175: x21 + x46 + x49 + x22 + x89 + x32 + x78 >= 1;
r176: x53 + x40 + x63 + x22 + x52 + x2 >= 1;
r177: x77 + x54 + x66 >= 1;
r178: x60 + x59 + x96 + x85 >= 1;
r179: x41 + x23 + x34 + x92 + x54 + x3 + x58 + x9 >= 1;
r180: x72 + x7 + x56 + x25 + x31 + x74 + x46 >= 1;
r181: x89 >= 1;
r182: x70 + x34 + x73 + x14 + x94 + x29 + x36 >= 1;
r183: x70 + x31 + x85 + x56 + x74 + x39 >= 1;
r184: x92 + x1 + x58 + x12 >= 1;
r185: x51 >= 1;
r186: x15 + x9 + x5 + x85 + x28 + x12 >= 1;
r187: x62 + x66 + x94 + x52 >= 1;
r188: x81 + x41 + x94 + x56 + x20 >= 1;
r189: x58 + x53 + x7 + x85 + x43 + x20 >= 1;
r190: x33 + x62 + x82 + x12 + x93 + x79 + x13 + x99 >= 1;
r191: x32 + x17 + x45 + x47 >= 1;
r192: x50 + x38 + x59 >= 1;
r193: x22 + x53 + x67 + x96 + x40 + x21 + x27 + x15 >= 1;
r194: x89 >= 1;
r195: x95 + x91 + x81 + x64 >= 1;
r196: x99 + x44 + x84 >= 1;
r197: x3 >= 1;
r198: x82 + x8 + x70 + x67 + x99 >= 1;
r199: x89 >= 1;
r200: x24 + x81 + x52 + x68 >= 1;
r201: x90 + x64 + x62 >= 1;
r202: x94 >= 1;
r203: x38 >= 1;
r204: x34 + x81 + x8 >= 1;
r205: x28 + x6 + x38 >= 1;
r206: x1 >= 1;
r207: x24 + x31 + x72 + x40 + x99 + x80 + x36 >= 1;
r208: x79 + x59 + x80 + x91 + x57 >= 1;
r209: x17 + x54 + x84 + x73 + x25 + x26 + x99 >= 1;
r210: x47 + x15 + x45 >= 1;
r211: x83 + x64 + x31 + x84 + x96 >= 1;
r212: x26 + x51 + x79 + x42 + x76 + x74 >= 1;
r213: x100 + x93 + x30 >= 1;
r214: x17 + x34 + x23 + x20 + x25 + x64 + x39 >= 1;
r215: x92 + x44 + x82 >= 1;
r216: x96 + x71 + x28 >= 1;
r217: x43 >= 1;
r218: x58 + x17 >= 1;
r219: x61 + x22 >= 1;
r220: x74 + x16 + x92 + x42 + x71 + x44 + x4 + x49 >= 1;
r221: x75 + x42 + x64 + x87 + x73 >= 1;
r222: x5 + x52 + x57 + x78 + x19 + x62 >= 1;
r223: x52 + x28 + x81 + x29 + x72 >= 1;
r224: x38 + x89 + x41 + x46 + x81 + x19 >= 1;
r225: x80 + x43 >= 1;
r226: x88 + x9 + x15 + x70 + x96 + x27 + x43 + x72 >= 1;
r227: x70 + x7 + x78 + x25 + x63 + x96 >= 1;
r228: x75 + x61 + x88 >= 1;
r229: x43 + x29 + x67 + x30 + x9 + x48 >= 1;
r230: x5 + x94 + x23 + x92 + x40 >= 1;
r231: x65 + x81 + x77 >= 1;
r232: x82 + x74 + x5 + x9 + x91 + x62 + x20 >= 1;
r233: x18 + x60 + x36 >= 1;
r234: x46 + x51 + x15 + x94 + x81 + x37 + x75 >= 1;
r235: x35 + x57 + x68 >= 1;
r236: x96 + x50 + x43 + x32 + x60 + x84 + x79 + x56 >= 1;
r237: x8 + x12 + x28 + x92 + x94 + x40 + x56 + x6 >= 1;
r238: x66 + x75 + x99 + x13 >= 1;
r239: x39 + x31 + x66 + x21 + x12 + x3 + x96 + x47 >= 1;
r240: x81 + x42 + x21 >= 1;
r241: x44 + x55 + x39 + x51 + x95 >= 1;
r242: x39 >= 1;
r243: x9 + x1 + x69 + x48 + x23 + x43 >= 1;
r244: x80 + x99 + x61 + x18 + x62 >= 1;
r245: x10 + x42 + x69 + x6 + x93 + x24 + x70 >= 1;
r246: x38 + x42 + x26 + x41 + x61 >= 1;
r247: x98 + x9 + x12 + x78 + x66 >= 1;
r248: x66 + x72 + x6 + x13 + x30 >= 1;
r249: x48 + x67 >= 1;
r250: x41 + x35 + x24 + x96 + x92 + x18 + x68 + x77 >= 1;
r251: x87 + x73 >= 1;
r252: x42 + x45 >= 1;
r253: x34 + x80 + x48 + x39 + x88 + x60 + x65 + x2 >= 1;
r254: x41 + x73 + x63 >= 1;
r255: x40 + x33 + x96 >= 1;
r256: x36 + x45 + x16 + x61 >= 1;
r257: x91 + x87 + x60 + x55 + x43 >= 1;
r258: x78 >= 1;
r259: x50 + x96 + x66 + x10 + x52 + x45 + x9 + x16 >= 1;
r260: x64 + x92 + x71 + x4 + x21 + x19 + x2 + x70 >= 1;
r261: x56 + x66 + x38 + x27 + x95 + x32 + x29 >= 1;
r262: x17 + x84 + x20 >= 1;
r263: x64 + x55 + x95 + x73 + x3 >= 1;
r264: x51 + x53 + x60 + x84 + x25 >= 1;
r265: x8 + x32 + x27 + x96 + x68 >= 1;
r266: x82 + x15 + x71 + x55 + x56 >= 1;
r267: x38 >= 1;
r268: x82 + x35 >= 1;
r269: x6 + x35 + x91 + x38 + x67 >= 1;
r270: x3 >= 1;
r271: x35 + x47 + x88 + x13 + x18 >= 1;
r272: x64 >= 1;
r273: x1 + x46 + x43 + x4 + x94 + x5 >= 1;
r274: x30 + x79 >= 1;
r275: x45 + x86 + x39 + x8 >= 1;
r276: x20 + x56 + x37 + x43 + x31 >= 1;
r277: x2 + x69 + x96 >= 1;
r278: x92 + x5 + x26 + x25 + x73 + x34 + x6 + x32 >= 1;
r279: x82 + x19 + x76 + x48 >= 1;
r280: x87 + x92 >= 1;
r281: x10 + x59 + x55 + x34 + x33 >= 1;
r282: x79 + x72 + x42 + x12 + x74 + x1 + x23 + x4 >= 1;
r283: x58 + x30 >= 1;
r284: x51 + x30 + x50 + x78 >= 1;
r285: x22 + x29 + x38 + x53 + x42 + x66 + x16 >= 1;
r286: x18 >= 1;
r287: x81 >= 1;
r288: x10 + x86 + x30 + x53 + x94 >= 1;
r289: x53 + x52 + x44 + x57 + x1 >= 1;
r290: x68 + x39 + x55 >= 1;
r291: x25 + x100 + x52 + x82 + x50 >= 1;
r292: x21 + x95 + x48 + x57 + x8 + x77 + x12 + x6 >= 1;
r293: x55 + x56 + x39 + x34 >= 1;
r294: x51 >= 1;
r295: x44 + x56 + x61 + x12 + x66 + x93 + x95 >= 1;
r296: x51 + x66 + x8 + x20 >= 1;
r297: x42 + x63 >= 1;
r298: x20 + x54 + x37 + x9 + x63 >= 1;
r299: x20 + x85 >= 1;
r300: x82 + x59 + x13 + x14 + x77 + x46 + x11 >= 1;
r301: x75 + x79 >= 1;
r302: x26 >= 1;
r303: x9 >= 1;
r304: x53 + x84 + x30 + x27 + x36 + x39 + x70 >= 1;
r305: x72 + x82 + x9 + x80 >= 1;
r306: x35 + x58 + x95 + x38 + x16 + x15 + x81 + x89 >= 1;
r307: x32 + x75 >= 1;
r308: x74 + x22 + x96 + x21 + x35 >= 1;
r309: x36 + x39 + x94 + x86 + x10 + x83 + x55 >= 1;
r310: x100 + x49 + x99 + x78 + x10 + x34 >= 1;
r311: x67 + x54 + x72 + x51 + x80 + x65 + x7 + x38 >= 1;
r312: x60 + x17 + x82 + x75 + x12 + x71 >= 1;
r313: x59 + x33 + x80 >= 1;
r314: x4 + x57 + x19 + x44 + x53 + x83 + x74 + x15 >= 1;
r315: x64 >= 1;
r316: x50 + x66 + x34 + x99 + x13 + x84 + x33 >= 1;
r317: x89 + x95 + x50 + x68 + x40 + x92 + x83 + x27 >= 1;
r318: x5 + x90 + x68 + x48 + x20 >= 1;
r319: x44 + x53 + x60 + x71 >= 1;
r320: x99 + x58 + x67 + x92 + x94 + x30 + x81 + x98 >= 1;
r321: x55 + x21 + x48 + x9 + x6 + x57 >= 1;
r322: x60 + x52 + x25 >= 1;
r323: x46 + x65 >= 1;
r324: x22 + x35 + x94 + x37 + x30 + x76 + x26 >= 1;
r325: x86 + x72 >= 1;
r326: x88 + x36 >= 1;
r327: x20 + x73 >= 1;
r328: x68 >= 1;
r329: x44 + x23 + x41 + x60 + x76 + x51 + x73 + x53 >= 1;
r330: x33 + x46 + x94 >= 1;
r331: x64 + x78 + x39 >= 1;
r332: x100 + x67 + x57 + x96 + x24 + x85 + x84 >= 1;
r333: x12 + x5 + x57 + x59 + x70 + x23 >= 1;
r334: x2 + x20 + x14 + x82 + x54 + x73 >= 1;
r335: x32 + x45 >= 1;
r336: x2 + x90 + x91 + x5 + x67 + x34 + x42 + x64 >= 1;
r337: x71 + x23 + x72 + x82 + x3 >= 1;
r338: x78 >= 1;
r339: x84 >= 1;
r340: x12 + x45 + x95 >= 1;
r341: x57 + x95 + x19 + x47 + x71 + x44 + x74 + x39 >= 1;
r342: x60 + x36 >= 1;
r343: x49 + x26 + x33 + x70 >= 1;
r344: x20 + x8 >= 1;
r345: x75 + x1 >= 1;
r346: x15 + x2 + x46 + x48 + x87 + x6 + x58 >= 1;
r347: x64 >= 1;
r348: x19 + x13 >= 1;
r349: x51 + x6 + x92 >= 1;
r350: x13 + x5 + x66 + x53 >= 1;
r351: x19 + x31 + x88 + x35 + x20 + x59 + x37 >= 1;
r352: x4 >= 1;
r353: x62 + x81 + x94 + x95 >= 1;
r354: x34 + x53 + x48 + x25 + x55 + x90 >= 1;
r355: x92 >= 1;
r356: x53 + x67 + x18 >= 1;
r357: x11 + x30 + x89 >= 1;
r358: x100 + x76 + x8 + x50 + x39 + x34 >= 1;
r359: x18 + x1 + x22 + x52 + x63 + x79 + x77 >= 1;
r360: x4 + x37 + x22 + x29 + x10 + x36 >= 1;
r361: x91 + x21 >= 1;
r362: x59 + x66 + x74 + x8 >= 1;
r363: x47 + x6 + x14 >= 1;
r364: x31 + x26 + x67 + x58 + x3 + x93 >= 1;
r365: x57 + x75 + x91 + x12 + x94 + x5 + x22 >= 1;
r366: x60 + x23 + x12 + x95 + x27 >= 1;
r367: x67 + x17 + x85 + x90 + x66 + x53 >= 1;
r368: x17 + x78 + x100 + x90 + x25 + x44 + x13 + x49 >= 1;
r369: x76 + x66 + x38 + x37 + x16 >= 1;
r370: x55 + x34 >= 1;
r371: x61 + x40 + x55 >= 1;
r372: x97 + x80 >= 1;
r373: x40 >= 1;
r374: x16 + x44 + x52 >= 1;
r375: x100 + x43 >= 1;
r376: x13 + x24 + x26 + x92 + x10 + x11 + x40 + x18 >= 1;
r377: x96 + x87 >= 1;
r378: x94 + x23 + x56 + x32 + x34 + x31 >= 1;
r379: x84 + x64 + x81 + x60 + x2 + x56 + x70 + x12 >= 1;
r380: x44 + x98 + x47 >= 1;
r381: x24 + x23 + x2 + x16 + x36 + x42 >= 1;
r382: x59 + x78 + x2 + x33 + x69 + x11 + x18 + x15 >= 1;
r383: x23 + x11 + x16 + x50 + x66 + x35 + x67 + x19 >= 1;
r384: x32 + x43 >= 1;
r385: x16 >= 1;
r386: x29 + x64 + x66 + x61 >= 1;
r387: x5 + x65 + x89 >= 1;
r388: x26 + x86 + x27 + x55 + x37 + x25 + x49 + x90 >= 1;
r389: x4 + x13 + x57 >= 1;
r390: x99 + x61 >= 1;
r391: x87 + x5 + x36 >= 1;
r392: x40 + x65 + x86 + x55 + x35 + x69 + x39 + x70 >= 1;
r393: x4 + x92 + x17 + x46 + x88 + x47 + x10 >= 1;
r394: x93 + x98 + x18 + x17 + x31 + x66 >= 1;
r395: x33 + x60 + x7 + x92 + x81 + x25 + x69 + x98 >= 1;
r396: x12 + x31 + x6 + x87 + x7 + x66 >= 1;
r397: x31 >= 1;
r398: x66 >= 1;
r399: x53 + x30 >= 1;
r400: x72 >= 1;
r401: x20 + x58 + x12 >= 1;
r402: x87 >= 1;
r403: x50 + x39 + x100 + x44 >= 1;
r404: x45 + x93 + x40 + x76 + x67 + x71 + x61 >= 1;
r405: x39 + x45 + x64 + x71 >= 1;
r406: x14 + x95 + x21 + x36 + x18 + x71 + x10 >= 1;
r407: x63 + x92 >= 1;
r408: x82 + x96 + x31 + x4 + x86 >= 1;
r409: x98 + x48 + x86 + x93 + x41 + x38 + x47 >= 1;
r410: x75 + x67 + x45 + x65 + x19 + x3 + x51 + x80 >= 1;
r411: x27 + x75 + x70 + x9 + x13 + x42 + x7 >= 1;
r412: x52 + x39 + x71 + x34 + x77 + x32 + x74 + x20 >= 1;
r413: x30 + x84 + x67 + x73 + x62 >= 1;
r414: x24 + x79 + x65 + x53 + x92 + x8 >= 1;
r415: x94 + x80 + x53 + x91 + x47 + x77 + x7 >= 1;
r416: x31 >= 1;
r417: x93 + x33 >= 1;
r418: x14 + x9 + x50 + x75 + x77 + x11 >= 1;
r419: x44 + x71 + x51 + x29 + x3 + x19 + x13 + x56 >= 1;
r420: x6 + x69 + x87 + x42 + x27 + x61 + x41 >= 1;
r421: x37 >= 1;
r422: x35 + x100 + x52 >= 1;
r423: x17 + x20 + x18 >= 1;
r424: x90 >= 1;
r425: x18 + x100 + x6 + x88 + x38 + x30 + x2 >= 1;
r426: x30 + x31 + x14 + x4 + x62 + x28 + x2 >= 1;
r427: x81 + x86 + x96 + x46 >= 1;
r428: x99 + x44 + x57 + x47 + x88 >= 1;
r429: x29 + x21 + x4 + x10 + x69 + x26 >= 1;
r430: x1 + x48 + x34 >= 1;
r431: x13 + x37 + x73 >= 1;
r432: x48 + x36 + x81 >= 1;
r433: x99 + x80 >= 1;
r434: x3 + x87 >= 1;
r435: x55 + x56 + x88 + x41 + x62 + x40 + x8 + x15 >= 1;
r436: x85 + x3 >= 1;
r437: x51 + x30 + x92 >= 1;
r438: x12 >= 1;
r439: x60 + x52 + x39 + x97 + x11 + x100 >= 1;
r440: x77 + x52 + x13 >= 1;
r441: x19 + x53 >= 1;
r442: x47 + x84 + x4 >= 1;
r443: x8 + x18 + x50 + x9 + x26 >= 1;
r444: x8 + x12 + x73 + x74 + x79 + x21 >= 1;
r445: x99 + x14 + x21 + x2 + x35 + x20 >= 1;
r446: x27 + x16 + x93 + x73 >= 1;
r447: x1 + x39 + x38 + x72 + x93 + x79 + x82 + x90 >= 1;
r448: x86 + x14 + x63 + x47 + x35 + x92 + x30 >= 1;
r449: x51 + x85 + x72 + x12 + x57 + x52 >= 1;
r450: x30 + x34 + x27 + x95 >= 1;
r451: x92 >= 1;
r452: x87 + x91 >= 1;
r453: x72 + x88 + x70 >= 1;
r454: x37 + x33 + x39 + x89 + x4 + x18 + x9 >= 1;
r455: x20 + x42 + x99 + x17 + x62 + x95 + x79 + x9 >= 1;
r456: x7 + x34 >= 1;
r457: x21 + x48 >= 1;
r458: x31 + x97 + x3 + x58 + x89 >= 1;
r459: x84 + x29 + x8 + x5 + x17 + x26 + x10 >= 1;
r460: x89 + x22 + x12 + x51 + x39 >= 1;
r461: x79 + x11 + x18 >= 1;
r462: x74 + x55 + x37 >= 1;
r463: x29 + x2 >= 1;
r464: x19 + x21 + x36 + x50 + x29 + x74 >= 1;
r465: x73 + x61 + x7 + x87 + x65 >= 1;
r466: x66 + x29 + x38 + x25 >= 1;
r467: x65 + x93 + x82 + x97 + x14 + x31 + x78 >= 1;
r468: x96 >= 1;
r469: x89 + x20 >= 1;
r470: x16 + x46 + x19 + x17 + x38 + x20 + x48 + x8 >= 1;
r471: x53 + x20 + x67 + x26 + x12 + x15 + x38 >= 1;
r472: x78 + x41 + x76 + x46 + x86 + x11 + x21 + x35 >= 1;
r473: x86 + x48 >= 1;
r474: x9 + x66 + x8 + x83 + x88 + x23 + x57 + x7 >= 1;
r475: x63 + x56 + x71 + x1 + x73 + x48 >= 1;
r476: x39 + x97 + x58 + x43 + x5 >= 1;
r477: x67 + x51 + x17 + x98 + x15 + x4 + x65 + x74 >= 1;
r478: x82 + x59 + x23 + x10 + x58 + x50 + x68 >= 1;
r479: x91 >= 1;
r480: x80 + x77 + x93 >= 1;
r481: x63 + x94 + x99 + x32 + x64 + x34 + x70 >= 1;
r482: x79 + x24 >= 1;
r483: x82 + x51 + x93 + x83 + x91 + x63 >= 1;
r484: x11 + x33 + x8 + x19 + x79 >= 1;
r485: x50 + x26 + x30 >= 1;
r486: x9 + x55 >= 1;
r487: x14 + x36 + x82 + x1 + x69 + x95 + x80 + x72 >= 1;
r488: x2 + x62 + x52 + x36 + x1 >= 1;
r489: x19 + x63 + x99 >= 1;
r490: x44 + x55 + x81 >= 1;
r491: x58 >= 1;
r492: x85 + x86 + x26 + x19 >= 1;
r493: x57 + x70 + x40 >= 1;
r494: x55 + x27 >= 1;
r495: x63 + x51 >= 1;
r496: x57 + x74 + x30 + x18 + x82 + x34 >= 1;
r497: x71 + x46 + x47 + x27 + x61 + x49 + x81 >= 1;
r498: x36 + x35 + x5 + x39 + x17 + x42 + x45 >= 1;
r499: x41 + x58 + x96 + x88 + x76 + x48 + x64 + x56 >= 1;
r500: x51 + x6 + x46 + x100 + x47 + x99 >= 1;
r501: x37 + x22 + x32 + x61 + x4 + x13 >= 1;
r502: x54 + x85 + x33 + x4 + x1 + x26 >= 1;
r503: x50 + x93 + x74 + x36 + x78 + x61 >= 1;
r504: x35 + x55 + x38 + x57 + x84 + x2 + x70 >= 1;
r505: x36 + x99 >= 1;
r506: x15 + x70 + x45 + x68 + x65 + x43 + x95 + x40 >= 1;
r507: x32 + x59 + x68 + x86 + x69 >= 1;
r508: x64 + x60 + x58 + x93 + x81 + x17 + x30 >= 1;
r509: x34 + x49 + x57 + x16 + x1 + x10 + x31 + x82 >= 1;
r510: x67 + x35 >= 1;
r511: x53 + x42 >= 1;
r512: x42 >= 1;
r513: x88 + x46 + x63 + x43 >= 1;
r514: x66 + x56 + x21 + x30 + x49 >= 1;
r515: x53 + x7 >= 1;
r516: x48 + x22 + x16 + x61 + x10 + x37 + x88 >= 1;
r517: x94 >= 1;
r518: x97 >= 1;
r519: x50 + x96 + x49 + x26 + x86 + x15 + x94 >= 1;
r520: x93 + x39 + x23 + x17 + x51 + x38 >= 1;
r521: x59 + x32 + x36 >= 1;
r522: x54 + x8 + x88 >= 1;
r523: x13 + x31 >= 1;
r524: x55 + x19 + x9 + x10 >= 1;
r525: x70 + x43 + x23 + x65 + x30 + x60 >= 1;
r526: x81 + x86 + x43 + x57 + x21 + x20 + x98 >= 1;
r527: x23 + x77 + x17 + x96 + x4 >= 1;
r528: x58 + x47 >= 1;
r529: x56 + x18 + x52 + x68 >= 1;
r530: x79 + x91 + x8 + x27 + x71 + x24 + x16 + x36 >= 1;
r531: x93 + x3 + x84 + x99 + x44 + x72 + x91 + x98 >= 1;
r532: x13 + x9 >= 1;
r533: x67 + x32 >= 1;
r534: x28 + x44 + x21 + x70 + x56 >= 1;
r535: x23 + x37 + x20 + x84 + x86 + x42 >= 1;
r536: x6 + x30 + x14 + x69 + x87 + x90 >= 1;
r537: x38 + x10 >= 1;
r538: x62 + x33 + x80 + x97 >= 1;
r539: x59 + x57 + x91 >= 1;
r540: x8 + x97 + x67 + x2 + x64 + x59 >= 1;
r541: x82 + x80 + x31 + x10 >= 1;
r542: x100 + x79 + x67 + x32 + x20 >= 1;
r543: x87 >= 1;
r544: x60 + x38 + x84 + x90 + x10 + x12 >= 1;
r545: x83 + x25 + x98 + x88 + x62 >= 1;
r546: x20 + x96 + x85 + x69 + x78 + x7 + x26 + x79 >= 1;
r547: x1 + x69 + x12 + x95 + x21 + x59 + x16 >= 1;
r548: x58 + x43 + x47 + x11 + x54 + x33 + x21 + x57 >= 1;
r549: x24 + x42 + x11 >= 1;
r550: x29 + x72 + x90 + x88 + x100 >= 1;

bin x1, x2, x3, x4, x5, x6, x7, x8, x9, x10, x11, x12, x13, x14, x15, x16, x17, x18, x19, x20, x21, x22, x23, x24, x25, x26, x27, x28, x29, x30, x31, x32, x33, x34, x35, x36, x37, x38, x39, x40, x41, x42, x43, x44, x45, x46, x47, x48, x49, x50, x51, x52, x53, x54, x55, x56, x57, x58, x59, x60, x61, x62, x63, x64, x65, x66, x67, x68, x69, x70, x71, x72, x73, x74, x75, x76, x77, x78, x79, x80, x81, x82, x83, x84, x85, x86, x87, x88, x89, x90, x91, x92, x93, x94, x95, x96, x97, x98, x99, x100;
